
Gurobi 12.0.0 (win64, Python) logging started Mon Dec 16 00:23:16 2024

Set parameter Username
Set parameter LicenseID to value 2592705
Set parameter LogFile to value "gurobi.log"
Academic license - for non-commercial use only - expires 2025-11-28
